; benchmark generated from python API
(set-info :status unknown)
(declare-fun q_v0q0.i () Real)
(declare-fun q_v0q0.r () Real)
(declare-fun q_v0q1.i () Real)
(declare-fun q_v0q1.r () Real)
(declare-fun |anc_v0q0\|q_v0q0.i| () Real)
(declare-fun |anc_v0q0\|q_v0q0.r| () Real)
(declare-fun |anc_v0q0\|q_v0q1.i| () Real)
(declare-fun |anc_v0q0\|q_v0q1.r| () Real)
(declare-fun |anc_v0q1\|q_v0q0.i| () Real)
(declare-fun |anc_v0q1\|q_v0q0.r| () Real)
(declare-fun |anc_v0q1\|q_v0q1.i| () Real)
(declare-fun |anc_v0q1\|q_v0q1.r| () Real)
(declare-fun |anc_v1q0\|q_v0q0.i| () Real)
(declare-fun |anc_v1q0\|q_v0q0.r| () Real)
(declare-fun |anc_v1q0\|q_v0q1.i| () Real)
(declare-fun |anc_v1q0\|q_v0q1.r| () Real)
(declare-fun |anc_v1q1\|q_v0q0.i| () Real)
(declare-fun |anc_v1q1\|q_v0q0.r| () Real)
(declare-fun |anc_v1q1\|q_v0q1.i| () Real)
(declare-fun |anc_v1q1\|q_v0q1.r| () Real)
(declare-fun f (Int) Int)
(declare-fun |anc_v2q0\|q_v1q0.i| () Real)
(declare-fun |anc_v2q0\|q_v1q0.r| () Real)
(declare-fun |anc_v2q0\|q_v1q1.i| () Real)
(declare-fun |anc_v2q0\|q_v1q1.r| () Real)
(declare-fun |anc_v2q1\|q_v1q0.i| () Real)
(declare-fun |anc_v2q1\|q_v1q0.r| () Real)
(declare-fun |anc_v2q1\|q_v1q1.i| () Real)
(declare-fun |anc_v2q1\|q_v1q1.r| () Real)
(declare-fun |anc_v2q0\|q_v2q0.i| () Real)
(declare-fun |anc_v2q0\|q_v2q0.r| () Real)
(declare-fun |anc_v2q0\|q_v2q1.i| () Real)
(declare-fun |anc_v2q0\|q_v2q1.r| () Real)
(declare-fun |anc_v2q1\|q_v2q0.i| () Real)
(declare-fun |anc_v2q1\|q_v2q0.r| () Real)
(declare-fun |anc_v2q1\|q_v2q1.i| () Real)
(declare-fun |anc_v2q1\|q_v2q1.r| () Real)
(declare-fun Pr_q_v2_1 () Real)
(declare-fun Pr_q_v2_0 () Real)
(declare-fun Pr_q_v2_sum () Real)
(declare-fun meas_cert () Bool)
(declare-fun meas_q () Int)
(declare-fun anc_v3q1.i () Real)
(declare-fun anc_v3q1.r () Real)
(declare-fun anc_v3q0.i () Real)
(declare-fun anc_v3q0.r () Real)
(declare-fun q_v0c () Int)
(declare-fun anc_v4q0.i () Real)
(declare-fun anc_v4q0.r () Real)
(declare-fun anc_v4q1.i () Real)
(declare-fun anc_v4q1.r () Real)
(declare-fun deutsch_ret () Int)
(assert
 (and (= q_v0q0.r 1.0) (= 0.0 q_v0q0.i)))
(assert
 (and (= q_v0q1.r 0.0) (= 0.0 q_v0q1.i)))
(assert
 (and (= |anc_v0q0\|q_v0q0.r| 0.0) (= 0.0 |anc_v0q0\|q_v0q0.i|)))
(assert
 (and (= |anc_v0q0\|q_v0q1.r| 0.0) (= 0.0 |anc_v0q0\|q_v0q1.i|)))
(assert
 (and (= |anc_v0q1\|q_v0q0.r| q_v0q0.r) (= |anc_v0q1\|q_v0q0.i| q_v0q0.i)))
(assert
 (and (= |anc_v0q1\|q_v0q1.r| q_v0q1.r) (= |anc_v0q1\|q_v0q1.i| q_v0q1.i)))
(assert
 (let ((?x84 (* (/ 1.0 2.0) |anc_v0q1\|q_v0q1.i|)))
 (let ((?x108 (* (/ 1.0 2.0) |anc_v0q1\|q_v0q0.i|)))
 (let ((?x106 (* (/ 1.0 2.0) |anc_v0q0\|q_v0q1.i|)))
 (let ((?x105 (* (/ 1.0 2.0) |anc_v0q0\|q_v0q0.i|)))
 (let ((?x62 (* (/ 1.0 2.0) |anc_v0q1\|q_v0q1.r|)))
 (let ((?x103 (* (/ 1.0 2.0) |anc_v0q1\|q_v0q0.r|)))
 (let ((?x101 (* (/ 1.0 2.0) |anc_v0q0\|q_v0q1.r|)))
 (let ((?x44 (* (/ 1.0 2.0) |anc_v0q0\|q_v0q0.r|)))
 (and (= |anc_v1q0\|q_v0q0.r| (+ ?x44 ?x101 ?x103 ?x62)) (= |anc_v1q0\|q_v0q0.i| (+ ?x105 ?x106 ?x108 ?x84))))))))))))
(assert
 (let ((?x66 (* (- (/ 1.0 2.0)) |anc_v0q1\|q_v0q1.i|)))
 (let ((?x108 (* (/ 1.0 2.0) |anc_v0q1\|q_v0q0.i|)))
 (let ((?x45 (* (- (/ 1.0 2.0)) |anc_v0q0\|q_v0q1.i|)))
 (let ((?x105 (* (/ 1.0 2.0) |anc_v0q0\|q_v0q0.i|)))
 (let ((?x92 (* (- (/ 1.0 2.0)) |anc_v0q1\|q_v0q1.r|)))
 (let ((?x103 (* (/ 1.0 2.0) |anc_v0q1\|q_v0q0.r|)))
 (let ((?x90 (* (- (/ 1.0 2.0)) |anc_v0q0\|q_v0q1.r|)))
 (let ((?x44 (* (/ 1.0 2.0) |anc_v0q0\|q_v0q0.r|)))
 (and (= |anc_v1q0\|q_v0q1.r| (+ ?x44 ?x90 ?x103 ?x92)) (= |anc_v1q0\|q_v0q1.i| (+ ?x105 ?x45 ?x108 ?x66))))))))))))
(assert
 (let ((?x66 (* (- (/ 1.0 2.0)) |anc_v0q1\|q_v0q1.i|)))
 (let ((?x209 (* (- (/ 1.0 2.0)) |anc_v0q1\|q_v0q0.i|)))
 (let ((?x106 (* (/ 1.0 2.0) |anc_v0q0\|q_v0q1.i|)))
 (let ((?x105 (* (/ 1.0 2.0) |anc_v0q0\|q_v0q0.i|)))
 (let ((?x92 (* (- (/ 1.0 2.0)) |anc_v0q1\|q_v0q1.r|)))
 (let ((?x286 (* (- (/ 1.0 2.0)) |anc_v0q1\|q_v0q0.r|)))
 (let ((?x101 (* (/ 1.0 2.0) |anc_v0q0\|q_v0q1.r|)))
 (let ((?x44 (* (/ 1.0 2.0) |anc_v0q0\|q_v0q0.r|)))
 (and (= |anc_v1q1\|q_v0q0.r| (+ ?x44 ?x101 ?x286 ?x92)) (= |anc_v1q1\|q_v0q0.i| (+ ?x105 ?x106 ?x209 ?x66))))))))))))
(assert
 (let ((?x84 (* (/ 1.0 2.0) |anc_v0q1\|q_v0q1.i|)))
 (let ((?x209 (* (- (/ 1.0 2.0)) |anc_v0q1\|q_v0q0.i|)))
 (let ((?x45 (* (- (/ 1.0 2.0)) |anc_v0q0\|q_v0q1.i|)))
 (let ((?x105 (* (/ 1.0 2.0) |anc_v0q0\|q_v0q0.i|)))
 (let ((?x62 (* (/ 1.0 2.0) |anc_v0q1\|q_v0q1.r|)))
 (let ((?x286 (* (- (/ 1.0 2.0)) |anc_v0q1\|q_v0q0.r|)))
 (let ((?x90 (* (- (/ 1.0 2.0)) |anc_v0q0\|q_v0q1.r|)))
 (let ((?x44 (* (/ 1.0 2.0) |anc_v0q0\|q_v0q0.r|)))
 (and (= |anc_v1q1\|q_v0q1.r| (+ ?x44 ?x90 ?x286 ?x62)) (= |anc_v1q1\|q_v0q1.i| (+ ?x105 ?x45 ?x209 ?x84))))))))))))
(assert
 (let ((?x21 (f 0)))
 (let (($x23 (= ?x21 1)))
 (let ((?x50 (ite $x23 1.0 0.0)))
 (let ((?x243 (* (- 1.0) ?x50)))
 (let ((?x148 (+ 1.0 ?x243)))
 (let (($x280 (= |anc_v2q0\|q_v1q0.i| (+ (* |anc_v1q0\|q_v0q0.i| ?x148) (* |anc_v1q0\|q_v0q1.i| ?x50)))))
 (let (($x338 (= |anc_v2q0\|q_v1q0.r| (+ (* |anc_v1q0\|q_v0q0.r| ?x148) (* |anc_v1q0\|q_v0q1.r| ?x50)))))
 (and $x338 $x280)))))))))
(assert
 (let ((?x57 (+ 1.0 (* (- 1.0) (ite (= (f 1) 1) 1.0 0.0)))))
 (let ((?x277 (+ (* |anc_v1q0\|q_v0q0.i| (ite (= (f 1) 1) 1.0 0.0)) (* |anc_v1q0\|q_v0q1.i| ?x57))))
 (let ((?x298 (+ (* |anc_v1q0\|q_v0q0.r| (ite (= (f 1) 1) 1.0 0.0)) (* |anc_v1q0\|q_v0q1.r| ?x57))))
 (and (= |anc_v2q0\|q_v1q1.r| ?x298) (= |anc_v2q0\|q_v1q1.i| ?x277))))))
(assert
 (let ((?x21 (f 0)))
 (let (($x23 (= ?x21 1)))
 (let ((?x50 (ite $x23 1.0 0.0)))
 (let ((?x243 (* (- 1.0) ?x50)))
 (let ((?x148 (+ 1.0 ?x243)))
 (let (($x291 (= |anc_v2q1\|q_v1q0.i| (+ (* |anc_v1q1\|q_v0q0.i| ?x148) (* |anc_v1q1\|q_v0q1.i| ?x50)))))
 (let (($x264 (= |anc_v2q1\|q_v1q0.r| (+ (* |anc_v1q1\|q_v0q0.r| ?x148) (* |anc_v1q1\|q_v0q1.r| ?x50)))))
 (and $x264 $x291)))))))))
(assert
 (let ((?x57 (+ 1.0 (* (- 1.0) (ite (= (f 1) 1) 1.0 0.0)))))
 (let ((?x289 (+ (* |anc_v1q1\|q_v0q0.i| (ite (= (f 1) 1) 1.0 0.0)) (* |anc_v1q1\|q_v0q1.i| ?x57))))
 (let ((?x307 (+ (* |anc_v1q1\|q_v0q0.r| (ite (= (f 1) 1) 1.0 0.0)) (* |anc_v1q1\|q_v0q1.r| ?x57))))
 (and (= |anc_v2q1\|q_v1q1.r| ?x307) (= |anc_v2q1\|q_v1q1.i| ?x289))))))
(assert
 (let ((?x15 (+ (* (root-obj (+ (* 2 (^ x 2)) (- 1)) 2) |anc_v2q0\|q_v1q0.i|) (* (root-obj (+ (* 2 (^ x 2)) (- 1)) 2) |anc_v2q1\|q_v1q0.i|))))
 (let ((?x322 (+ (* (root-obj (+ (* 2 (^ x 2)) (- 1)) 2) |anc_v2q0\|q_v1q0.r|) (* (root-obj (+ (* 2 (^ x 2)) (- 1)) 2) |anc_v2q1\|q_v1q0.r|))))
 (and (= |anc_v2q0\|q_v2q0.r| ?x322) (= |anc_v2q0\|q_v2q0.i| ?x15)))))
(assert
 (let ((?x241 (+ (* (root-obj (+ (* 2 (^ x 2)) (- 1)) 2) |anc_v2q0\|q_v1q1.i|) (* (root-obj (+ (* 2 (^ x 2)) (- 1)) 2) |anc_v2q1\|q_v1q1.i|))))
 (let ((?x340 (+ (* (root-obj (+ (* 2 (^ x 2)) (- 1)) 2) |anc_v2q0\|q_v1q1.r|) (* (root-obj (+ (* 2 (^ x 2)) (- 1)) 2) |anc_v2q1\|q_v1q1.r|))))
 (and (= |anc_v2q0\|q_v2q1.r| ?x340) (= |anc_v2q0\|q_v2q1.i| ?x241)))))
(assert
 (let ((?x317 (+ (* (root-obj (+ (* 2 (^ x 2)) (- 1)) 2) |anc_v2q0\|q_v1q0.i|) (* (root-obj (+ (* 2 (^ x 2)) (- 1)) 1) |anc_v2q1\|q_v1q0.i|))))
 (let ((?x185 (+ (* (root-obj (+ (* 2 (^ x 2)) (- 1)) 2) |anc_v2q0\|q_v1q0.r|) (* (root-obj (+ (* 2 (^ x 2)) (- 1)) 1) |anc_v2q1\|q_v1q0.r|))))
 (and (= |anc_v2q1\|q_v2q0.r| ?x185) (= |anc_v2q1\|q_v2q0.i| ?x317)))))
(assert
 (let ((?x268 (+ (* (root-obj (+ (* 2 (^ x 2)) (- 1)) 2) |anc_v2q0\|q_v1q1.i|) (* (root-obj (+ (* 2 (^ x 2)) (- 1)) 1) |anc_v2q1\|q_v1q1.i|))))
 (let ((?x270 (+ (* (root-obj (+ (* 2 (^ x 2)) (- 1)) 2) |anc_v2q0\|q_v1q1.r|) (* (root-obj (+ (* 2 (^ x 2)) (- 1)) 1) |anc_v2q1\|q_v1q1.r|))))
 (and (= |anc_v2q1\|q_v2q1.r| ?x270) (= |anc_v2q1\|q_v2q1.i| ?x268)))))
(assert
 (and (and (<= Pr_q_v2_0 1.0) (>= Pr_q_v2_0 0.0)) (and (<= Pr_q_v2_1 1.0) (>= Pr_q_v2_1 0.0))))
(assert
 (= Pr_q_v2_sum (+ Pr_q_v2_0 Pr_q_v2_1)))
(assert
 (= Pr_q_v2_sum 1.0))
(assert
 (let ((?x120 (+ (+ (^ |anc_v2q0\|q_v2q0.r| 2.0) (^ |anc_v2q0\|q_v2q0.i| 2.0)) (+ (^ |anc_v2q1\|q_v2q0.r| 2.0) (^ |anc_v2q1\|q_v2q0.i| 2.0)))))
 (= Pr_q_v2_0 ?x120)))
(assert
 (let ((?x134 (+ (+ (^ |anc_v2q0\|q_v2q1.r| 2.0) (^ |anc_v2q0\|q_v2q1.i| 2.0)) (+ (^ |anc_v2q1\|q_v2q1.r| 2.0) (^ |anc_v2q1\|q_v2q1.i| 2.0)))))
 (= Pr_q_v2_1 ?x134)))
(assert
 (let (($x128 (= Pr_q_v2_1 1.0)))
 (let (($x73 (= Pr_q_v2_0 1.0)))
 (let (($x55 (or $x73 $x128)))
 (let (($x85 (= meas_cert true)))
 (and (=> $x55 $x85) (=> $x85 $x55)))))))
(assert
 (and (=> (= Pr_q_v2_0 1.0) (= meas_q 0)) (=> (= meas_q 0) (= Pr_q_v2_0 1.0))))
(assert
 (and (=> (= Pr_q_v2_1 1.0) (= meas_q 1)) (=> (= meas_q 1) (= Pr_q_v2_1 1.0))))
(assert
 (let (($x130 (and (= anc_v3q1.r |anc_v2q1\|q_v2q0.r|) (= anc_v3q1.i |anc_v2q1\|q_v2q0.i|))))
 (let (($x63 (and (= anc_v3q0.r |anc_v2q0\|q_v2q0.r|) (= anc_v3q0.i |anc_v2q0\|q_v2q0.i|))))
 (let (($x133 (= meas_q 0)))
 (=> $x133 (and $x63 $x130))))))
(assert
 (let (($x201 (and (= anc_v3q1.r |anc_v2q1\|q_v2q1.r|) (= anc_v3q1.i |anc_v2q1\|q_v2q1.i|))))
 (let (($x153 (and (= anc_v3q0.r |anc_v2q0\|q_v2q1.r|) (= anc_v3q0.i |anc_v2q0\|q_v2q1.i|))))
 (let (($x48 (= meas_q 1)))
 (=> $x48 (and $x153 $x201))))))
(assert
 (= q_v0c meas_q))
(assert
 (let (($x341 (= anc_v4q0.i (+ (* (root-obj (+ (* 2 (^ x 2)) (- 1)) 2) anc_v3q0.i) (* (root-obj (+ (* 2 (^ x 2)) (- 1)) 2) anc_v3q1.i)))))
 (let (($x218 (= anc_v4q0.r (+ (* (root-obj (+ (* 2 (^ x 2)) (- 1)) 2) anc_v3q0.r) (* (root-obj (+ (* 2 (^ x 2)) (- 1)) 2) anc_v3q1.r)))))
 (and $x218 $x341))))
(assert
 (let (($x354 (= anc_v4q1.i (+ (* (root-obj (+ (* 2 (^ x 2)) (- 1)) 2) anc_v3q0.i) (* (root-obj (+ (* 2 (^ x 2)) (- 1)) 1) anc_v3q1.i)))))
 (let (($x350 (= anc_v4q1.r (+ (* (root-obj (+ (* 2 (^ x 2)) (- 1)) 2) anc_v3q0.r) (* (root-obj (+ (* 2 (^ x 2)) (- 1)) 1) anc_v3q1.r)))))
 (and $x350 $x354))))
(assert
 (= deutsch_ret q_v0c))
(check-sat)
